8
-1 16 27 89 34 65 12 10
23 -1 56 78 32 16 64 32
36 19 -1 82 57 35 80 25
70 25 79 -1 34 51 19 47
34 25 65 40 -1 42 59 41
35 90 26 10 37 -1 76 82
37 64 63 27 35 59 -1 38
37 80 28 38 58 39 41 -1

8
-1 16 27 89 34 65 12 10
16 -1 56 78 32 16 64 32
27 56 -1 82 57 35 80 25
89 78 82 -1 34 51 19 47
34 32 57 34 -1 42 59 41
65 16 35 51 42 -1 76 82
12 64 80 19 59 76 -1 38
10 32 25 47 41 82 38 -1
